Speck32/MILP/sol/6Round_70.sol
# Objective value = 15.0
pro0Rd0 1.0
pro1Rd0 1.0
pro2Rd0 1.0
pro3Rd0 1.000000000000001
pro4Rd0 0.0
pro5Rd0 1.0
pro6Rd0 -0.0
pro7Rd0 1.6653345369377348e-16
pro8Rd0 -6.661338147750939e-16
pro9Rd0 -9.159339953157541e-16
pro10Rd0 0.0
pro11Rd0 -0.0
pro12Rd0 1.0
pro13Rd0 -1.1102230246251565e-16
pro14Rd0 0.0
pro0Rd1 -1.1102230246251565e-15
pro1Rd1 0.0
pro2Rd1 -1.1102230246251565e-16
pro3Rd1 -0.0
pro4Rd1 -0.0
pro5Rd1 -2.4980018054066022e-15
pro6Rd1 8.881784197001252e-16
pro7Rd1 -1.1102230246251565e-16
pro8Rd1 1.0
pro9Rd1 2.220446049250313e-16
pro10Rd1 0.9999999999999998
pro11Rd1 -5.221517662690189e-16
pro12Rd1 -1.5890067039947553e-15
pro13Rd1 -5.221517662690189e-16
pro14Rd1 -0.0
pro0Rd2 -0.0
pro1Rd2 2.220446049250313e-16
pro2Rd2 -4.107825191113079e-15
pro3Rd2 -1.5334955527634975e-15
pro4Rd2 -5.221517662690189e-16
pro5Rd2 -1.1102230246251565e-16
pro6Rd2 -0.0
pro7Rd2 -1.1102230246251565e-16
pro8Rd2 -0.0
pro9Rd2 -0.0
pro10Rd2 -0.0
pro11Rd2 0.0
pro12Rd2 -1.5334955527634975e-15
pro13Rd2 0.0
pro14Rd2 -2.4980018054066022e-15
pro0Rd3 -3.552713678800501e-15
pro1Rd3 -3.552713678800501e-15
pro2Rd3 -3.552713678800501e-15
pro3Rd3 -2.3869795029440866e-15
pro4Rd3 -0.0
pro5Rd3 -0.0
pro6Rd3 1.0
pro7Rd3 -0.0
pro8Rd3 0.0
pro9Rd3 -2.0539125955565396e-15
pro10Rd3 -0.0
pro11Rd3 1.0408340855860843e-15
pro12Rd3 0.0
pro13Rd3 -0.0
pro14Rd3 -0.0
pro0Rd4 1.5987211554602254e-14
pro1Rd4 -0.0
pro2Rd4 5.551115123125783e-16
pro3Rd4 1.0408340855860843e-15
pro4Rd4 -3.885780586188048e-16
pro5Rd4 3.552713678800501e-15
pro6Rd4 0.9999999999999962
pro7Rd4 3.4416913763379853e-15
pro8Rd4 -9.43689570931383e-16
pro9Rd4 -0.0
pro10Rd4 -2.3592239273284576e-16
pro11Rd4 1.0408340855860843e-15
pro12Rd4 1.0408340855860843e-15
pro13Rd4 1.0
pro14Rd4 -0.0
pro0Rd5 0.0
pro1Rd5 -5.134781488891349e-16
pro2Rd5 -0.0
pro3Rd5 1.0408340855860843e-15
pro4Rd5 1.0
pro5Rd5 3.552713678800501e-15
pro6Rd5 0.9999999999999947
pro7Rd5 4.884981308350689e-15
pro8Rd5 -0.0
pro9Rd5 0.0
pro10Rd5 -1.1796119636642288e-16
pro11Rd5 0.9999999999999981
pro12Rd5 1.2212453270876722e-15
pro13Rd5 1.0
pro14Rd5 3.885780586188048e-15
p0 -1.0443035325380379e-15
p1 -6.106226635438361e-16
p2 -6.661338147750939e-16
p3 -1.3877787807814457e-15
p4 -0.0
p5 -1.1102230246251565e-16
p6 1.0
p7 -0.0
p8 2.275957200481571e-15
p9 -0.0
p10 0.9999999999999976
p11 1.0
p12 1.0
p13 -1.016547956922409e-15
p14 -0.0
p15 0.9999999999999998
p16 -0.0
p17 -0.0
p18 -0.0
p19 -0.0
p20 1.0
p21 -0.0
p22 1.0
p23 -1.016547956922409e-15
p24 2.220446049250313e-16
p25 -1.3322676295501878e-15
p26 -2.4980018054066022e-15
p27 0.0
p28 -1.1102230246251565e-16
p29 1.0
p30 -1.1102230246251565e-16
p31 2.220446049250313e-16
p0Rd1 8.881784197001252e-16
p16Rd1 -5.221517662690189e-16
temp0Rnd0 0.0
p1Rd1 -2.4980018054066022e-15
p17Rd1 -1.1102230246251565e-16
temp1Rnd0 -5.551115123125783e-16
p2Rd1 1.0
p18Rd1 0.0
temp2Rnd0 1.0
p3Rd1 2.220446049250313e-16
p19Rd1 -1.1102230246251565e-16
temp3Rnd0 1.6653345369377348e-16
p4Rd1 1.0
p20Rd1 -0.0
temp4Rnd0 1.0
p5Rd1 -1.016547956922409e-15
p21Rd1 -0.0
temp5Rnd0 -1.016547956922409e-15
p6Rd1 2.220446049250313e-16
p22Rd1 0.0
temp6Rnd0 2.220446049250313e-16
p7Rd1 -1.0443035325380379e-15
p23Rd1 -6.661338147750939e-16
temp7Rnd0 -1.0443035325380379e-15
p8Rd1 0.0
p24Rd1 -2.4980018054066022e-15
temp8Rnd0 -2.4980018054066022e-15
p9Rd1 -0.0
p25Rd1 -0.0
temp9Rnd0 0.0
p10Rd1 -2.8622937353617317e-16
p26Rd1 -2.609024107869118e-15
temp10Rnd0 -1.304512053934559e-15
p11Rd1 0.0
p27Rd1 1.0
temp11Rnd0 1.0
p12Rd1 -1.1102230246251565e-16
p28Rd1 0.0
temp12Rnd0 -1.1102230246251565e-16
p13Rd1 -0.0
p29Rd1 2.220446049250313e-16
temp13Rnd0 2.220446049250313e-16
p14Rd1 -0.0
p30Rd1 -5.221517662690189e-16
temp14Rnd0 -2.6107588313450947e-16
p15Rd1 -2.4980018054066022e-15
p31Rd1 -0.0
temp15Rnd0 -1.2490009027033011e-15
temp0 0.0
p0Rd2 0.0
p16Rd2 -0.0
temp0Rnd1 -0.0
p1Rd2 -1.1102230246251565e-16
p17Rd2 0.0
temp1Rnd1 -1.1102230246251565e-16
p2Rd2 -0.0
p18Rd2 0.0
temp2Rnd1 0.0
p3Rd2 0.0
p19Rd2 0.0
temp3Rnd1 -0.0
p4Rd2 -0.0
p20Rd2 0.0
temp4Rnd1 -0.0
p5Rd2 -0.0
p21Rd2 -6.661338147750939e-16
temp5Rnd1 -6.661338147750939e-16
p6Rd2 -2.4980018054066022e-15
p22Rd2 -1.1102230246251565e-16
temp6Rnd1 -2.4980018054066022e-15
p7Rd2 -0.0
p23Rd2 0.0
temp7Rnd1 -0.0
p8Rd2 -2.4980018054066022e-15
p24Rd2 -1.1102230246251565e-16
temp8Rnd1 -2.4980018054066022e-15
p9Rd2 1.0
p25Rd2 0.0
temp9Rnd1 1.0
p10Rd2 0.0
p26Rd2 0.0
temp10Rnd1 0.0
p11Rd2 2.220446049250313e-16
p27Rd2 -0.0
temp11Rnd1 2.220446049250313e-16
p12Rd2 -5.221517662690189e-16
p28Rd2 -0.0
temp12Rnd1 -5.221517662690189e-16
p13Rd2 -1.5334955527634975e-15
p29Rd2 -1.5334955527634975e-15
temp13Rnd1 -1.5334955527634975e-15
p14Rd2 -5.221517662690189e-16
p30Rd2 -0.0
temp14Rnd1 -5.221517662690189e-16
p15Rd2 -0.0
p31Rd2 -2.4980018054066022e-15
temp15Rnd1 -1.4988010832439613e-15
temp1 0.0
p0Rd3 1.0
p16Rd3 1.0
temp0Rnd2 1.0
p1Rd3 0.0
p17Rd3 0.0
temp1Rnd2 0.0
p2Rd3 -0.0
p18Rd3 0.0
temp2Rnd2 -0.0
p3Rd3 -4.107825191113079e-15
p19Rd3 -4.773959005888173e-15
temp3Rnd2 -4.773959005888173e-15
p4Rd3 -1.5334955527634975e-15
p20Rd3 -1.7763568394002505e-15
temp4Rnd2 -1.7763568394002505e-15
p5Rd3 0.0
p21Rd3 0.0
temp5Rnd2 0.0
p6Rd3 -1.1102230246251565e-16
p22Rd3 -0.0
temp6Rnd2 -1.1102230246251565e-16
p7Rd3 -0.0
p23Rd3 0.0
temp7Rnd2 0.0
p8Rd3 -0.0
p24Rd3 0.0
temp8Rnd2 0.0
p9Rd3 0.0
p25Rd3 0.0
temp9Rnd2 0.0
p10Rd3 0.0
p26Rd3 0.0
temp10Rnd2 0.0
p11Rd3 0.0
p27Rd3 -1.5334955527634975e-15
temp11Rnd2 -1.5334955527634975e-15
p12Rd3 -0.0
p28Rd3 -0.0
temp12Rnd2 0.0
p13Rd3 8.881784197001252e-16
p29Rd3 -0.0
temp13Rnd2 8.881784197001252e-16
p14Rd3 0.0
p30Rd3 -0.0
temp14Rnd2 -0.0
p15Rd3 0.0
p31Rd3 -0.0
temp15Rnd2 -0.0
temp2 -2.4980018054066022e-15
p0Rd4 1.0000000000000036
p16Rd4 1.0000000000000036
temp0Rnd3 1.0000000000000036
p1Rd4 -3.552713678800501e-15
p17Rd4 -8.43769498715119e-15
temp1Rnd3 -8.43769498715119e-15
p2Rd4 -3.552713678800501e-15
p18Rd4 -1.5334955527634975e-15
temp2Rnd3 -3.552713678800501e-15
p3Rd4 1.582067810090848e-15
p19Rd4 1.582067810090848e-15
temp3Rnd3 1.582067810090848e-15
p4Rd4 6.106226635438361e-16
p20Rd4 6.106226635438361e-16
temp4Rnd3 6.106226635438361e-16
p5Rd4 -0.0
p21Rd4 0.0
temp5Rnd3 -0.0
p6Rd4 -0.0
p22Rd4 0.0
temp6Rnd3 0.0
p7Rd4 1.0
p23Rd4 1.0
temp7Rnd3 1.0
p8Rd4 -0.0
p24Rd4 0.0
temp8Rnd3 0.0
p9Rd4 -0.0
p25Rd4 -1.5334955527634975e-15
temp9Rnd3 -1.5334955527634975e-15
p10Rd4 -2.0539125955565396e-15
p26Rd4 -2.0539125955565396e-15
temp10Rnd3 -2.0539125955565396e-15
p11Rd4 -1.5334955527634975e-15
p27Rd4 6.38378239159465e-16
temp11Rnd3 -4.926614671774132e-16
p12Rd4 1.0408340855860843e-15
p28Rd4 1.0408340855860843e-15
temp12Rnd3 1.0408340855860843e-15
p13Rd4 1.0408340855860843e-15
p29Rd4 1.0408340855860843e-15
temp13Rnd3 1.0408340855860843e-15
p14Rd4 -0.0
p30Rd4 1.0
temp14Rnd3 1.0
p15Rd4 0.0
p31Rd4 -0.0
temp15Rnd3 0.0
temp3 0.0
p0Rd5 0.9999999999999961
p16Rd5 0.9999999999999976
temp0Rnd4 0.9999999999999961
p1Rd5 -0.0
p17Rd5 -2.0539125955565396e-15
temp1Rnd4 -2.220446049250313e-16
p2Rd5 2.0816681711721685e-15
p18Rd5 1.3600232051658168e-15
temp2Rnd4 2.0816681711721685e-15
p3Rd5 2.0816681711721685e-15
p19Rd5 2.0816681711721685e-15
temp3Rnd4 2.0816681711721685e-15
p4Rd5 -0.0
p20Rd5 -0.0
temp4Rnd4 -0.0
p5Rd5 -3.885780586188048e-16
p21Rd5 1.0000000000000004
temp5Rnd4 1.0
p6Rd5 3.552713678800501e-15
p22Rd5 3.552713678800501e-15
temp6Rnd4 3.552713678800501e-15
p7Rd5 -0.0
p23Rd5 -1.5334955527634975e-15
temp7Rnd4 -1.5334955527634975e-15
p8Rd5 3.4416913763379853e-15
p24Rd5 1.2212453270876722e-15
temp8Rnd4 1.2212453270876722e-15
p9Rd5 -2.4980018054066022e-15
p25Rd5 2.0816681711721685e-15
temp9Rnd4 -0.0
p10Rd5 -2.0539125955565396e-15
p26Rd5 2.0816681711721685e-15
temp10Rnd4 4.440892098500626e-16
p11Rd5 8.326672684688674e-16
p27Rd5 -1.1796119636642288e-16
temp11Rnd4 8.326672684688674e-16
p12Rd5 2.0816681711721685e-15
p28Rd5 0.9999999999999979
temp12Rnd4 1.0
p13Rd5 2.0816681711721685e-15
p29Rd5 2.0816681711721685e-15
temp13Rnd4 2.0816681711721685e-15
p14Rd5 -0.0
p30Rd5 1.0000000000000036
temp14Rnd4 1.0000000000000036
p15Rd5 0.0
p31Rd5 -8.43769498715119e-15
temp15Rnd4 -8.43769498715119e-15
temp4 0.0
p0Rd6 1.0000000000000018
p16Rd6 1.0000000000000004
temp0Rnd5 1.0000000000000018
p1Rd6 -2.0539125955565396e-15
p17Rd6 -0.0
temp1Rnd5 5.551115123125783e-17
p2Rd6 1.27675647831893e-15
p18Rd6 1.27675647831893e-15
temp2Rnd5 1.27675647831893e-15
p3Rd6 2.0816681711721685e-15
p19Rd6 0.9999999999999974
temp3Rnd5 1.0
p4Rd6 1.0408340855860843e-15
p20Rd6 4.3298697960381105e-15
temp4Rnd5 4.3298697960381105e-15
p5Rd6 1.0000000000000016
p21Rd6 1.0
temp5Rnd5 1.0
p6Rd6 1.2212453270876722e-15
p22Rd6 -0.0
temp6Rnd5 1.2212453270876722e-15
p7Rd6 0.9999999999999902
p23Rd6 0.999999999999988
temp7Rnd5 0.9999999999999902
p8Rd6 2.886579864025407e-15
p24Rd6 5.551115123125783e-15
temp8Rnd5 5.551115123125783e-15
p9Rd6 2.0816681711721685e-15
p25Rd6 2.0539125955565396e-15
temp9Rnd5 2.0816681711721685e-15
p10Rd6 2.0816681711721685e-15
p26Rd6 0.9999999999999958
temp10Rnd5 0.9999999999999979
p11Rd6 -2.3592239273284576e-16
p27Rd6 2.275957200481571e-15
temp11Rnd5 2.0816681711721685e-15
p12Rd6 1.0
p28Rd6 -3.552713678800501e-15
temp12Rnd5 1.0
p13Rd6 3.4416913763379853e-15
p29Rd6 -5.329070518200751e-15
temp13Rnd5 -5.329070518200751e-15
p14Rd6 1.0000000000000089
p30Rd6 -1.1546319456101628e-14
temp14Rnd5 0.9999999999999976
p15Rd6 0.0
p31Rd6 -0.0
temp15Rnd5 -1.0269562977782698e-15
temp5 -2.4980018054066022e-15
